p cnf 16 12
c p distribution  0.875 0.125
c p distribution  0.875 0.125
c p distribution  0.875 0.125
c p distribution  0.875 0.125
c p distribution  0.875 0.125
16 0
-15 0
16 -11 -1 0
11 -16 -1 0
14 -13 -3 0
13 -14 -3 0
14 -11 -5 0
11 -14 -5 0
12 -11 -7 0
11 -12 -7 0
15 -13 -9 0
13 -15 -9 0

